NAME : a6
COMMENT: # of vertices is six. (1 2 3)means 3 is the weight of the edge COMMENT: from 1 to 2.  
TYPE: TSP
DIMENSION: 6
EDGE_WEIGHT_TYPE:  Integer
NODE_COORD_SECTION
 1  2  3 
 1  6  5 
 1  5  6 
 2  3  1 
 2  6  4 
 3  6  4 
 3  4  6 
 4  6  5 
 4  5  8 
 5  6  2
EOF